p cnf 265 1360
c p weight 12 0 0
c p weight -12 1 0
c p weight 13 1.0 0
c p weight -13 1 0
c p weight 18 -0.4161468365471424 0
c p weight -18 1 0
c p weight 19 0.9092974268256817 0
c p weight -19 1 0
c p weight 24 0 0
c p weight -24 1 0
c p weight 25 1.0 0
c p weight -25 1 0
c p weight 30 -0.4161468365471424 0
c p weight -30 1 0
c p weight 31 0.9092974268256817 0
c p weight -31 1 0
c p weight 37 -0.9684306916316954 0
c p weight -37 1 0
c p weight 38 0.2492829627266096 0
c p weight -38 1 0
c p weight 46 0 0
c p weight -46 1 0
c p weight 47 1.0 0
c p weight -47 1 0
c p weight 52 -0.4161468365471424 0
c p weight -52 1 0
c p weight 53 0.9092974268256817 0
c p weight -53 1 0
c p weight 59 -0.9684306916316954 0
c p weight -59 1 0
c p weight 60 0.2492829627266096 0
c p weight -60 1 0
c p weight 68 0 0
c p weight -68 1 0
c p weight 69 1.0 0
c p weight -69 1 0
c p weight 74 -0.4161468365471424 0
c p weight -74 1 0
c p weight 75 0.9092974268256817 0
c p weight -75 1 0
c p weight 81 -0.9684306916316954 0
c p weight -81 1 0
c p weight 82 0.2492829627266096 0
c p weight -82 1 0
c p weight 90 0 0
c p weight -90 1 0
c p weight 91 1.0 0
c p weight -91 1 0
c p weight 96 -0.4161468365471424 0
c p weight -96 1 0
c p weight 97 0.9092974268256817 0
c p weight -97 1 0
c p weight 103 -0.9684306916316954 0
c p weight -103 1 0
c p weight 104 0.2492829627266096 0
c p weight -104 1 0
c p weight 112 0 0
c p weight -112 1 0
c p weight 113 1.0 0
c p weight -113 1 0
c p weight 118 -0.4161468365471424 0
c p weight -118 1 0
c p weight 119 0.9092974268256817 0
c p weight -119 1 0
c p weight 125 -0.9684306916316954 0
c p weight -125 1 0
c p weight 126 0.2492829627266096 0
c p weight -126 1 0
c p weight 132 1.0 0
c p weight -132 1 0
c p weight 133 0 0
c p weight -133 1 0
c p weight 136 0 0
c p weight -136 1 0
c p weight 137 1.0 0
c p weight -137 1 0
c p weight 140 -0.6933167527464927 0
c p weight -140 1 0
c p weight 141 -0.7206329720190846 0
c p weight -141 1 0
c p weight 144 0 0
c p weight -144 1 0
c p weight 145 1.0 0
c p weight -145 1 0
c p weight 148 -1.0 0
c p weight -148 1 0
c p weight 149 0 0
c p weight -149 1 0
c p weight 155 -0.9684306916316954 0
c p weight -155 1 0
c p weight 156 0.2492829627266096 0
c p weight -156 1 0
c p weight 162 1.0 0
c p weight -162 1 0
c p weight 163 0 0
c p weight -163 1 0
c p weight 166 0 0
c p weight -166 1 0
c p weight 167 1.0 0
c p weight -167 1 0
c p weight 170 -0.9902151596461292 0
c p weight -170 1 0
c p weight 171 -0.13954905089964215 0
c p weight -171 1 0
c p weight 174 0 0
c p weight -174 1 0
c p weight 175 1.0 0
c p weight -175 1 0
c p weight 178 -1.0 0
c p weight -178 1 0
c p weight 179 0 0
c p weight -179 1 0
c p weight 182 1.0 0
c p weight -182 1 0
c p weight 183 0 0
c p weight -183 1 0
c p weight 186 0 0
c p weight -186 1 0
c p weight 187 1.0 0
c p weight -187 1 0
c p weight 190 -0.9986634796580147 0
c p weight -190 1 0
c p weight 191 -0.05168417937189278 0
c p weight -191 1 0
c p weight 194 0 0
c p weight -194 1 0
c p weight 195 1.0 0
c p weight -195 1 0
c p weight 198 -1.0 0
c p weight -198 1 0
c p weight 199 0 0
c p weight -199 1 0
c p weight 208 1.0 0
c p weight -208 1 0
c p weight 209 0 0
c p weight -209 1 0
c p weight 212 0 0
c p weight -212 1 0
c p weight 213 1.0 0
c p weight -213 1 0
c p weight 216 -0.9545037784299987 0
c p weight -216 1 0
c p weight 217 -0.29819882119628843 0
c p weight -217 1 0
c p weight 220 0 0
c p weight -220 1 0
c p weight 221 1.0 0
c p weight -221 1 0
c p weight 224 -1.0 0
c p weight -224 1 0
c p weight 225 0 0
c p weight -225 1 0
c p weight 228 1.0 0
c p weight -228 1 0
c p weight 229 0 0
c p weight -229 1 0
c p weight 232 0 0
c p weight -232 1 0
c p weight 233 1.0 0
c p weight -233 1 0
c p weight 236 -0.9044693324773551 0
c p weight -236 1 0
c p weight 237 -0.4265386578118891 0
c p weight -237 1 0
c p weight 240 0 0
c p weight -240 1 0
c p weight 241 1.0 0
c p weight -241 1 0
c p weight 244 -1.0 0
c p weight -244 1 0
c p weight 245 0 0
c p weight -245 1 0
c p weight 248 1.0 0
c p weight -248 1 0
c p weight 249 0 0
c p weight -249 1 0
c p weight 252 0 0
c p weight -252 1 0
c p weight 253 1.0 0
c p weight -253 1 0
c p weight 256 -0.7583912299077987 0
c p weight -256 1 0
c p weight 257 -0.6517996182868906 0
c p weight -257 1 0
c p weight 260 0 0
c p weight -260 1 0
c p weight 261 1.0 0
c p weight -261 1 0
c p weight 264 -1.0 0
c p weight -264 1 0
c p weight 265 0 0
c p weight -265 1 0
8 -7 1 0
8 -7 2 0
-8 7 1 0
-8 7 2 0
8 7 -1 -2 0
-8 -7 -1 -2 0
9 1 -2 0
9 -1 2 0
-9 1 2 0
-9 -1 -2 0
10 11 -8 0
10 -8 9 0
-10 11 8 0
-10 8 9 0
10 -8 -1 0
-10 8 -1 0
10 -11 8 1 -9 0
-10 -11 -8 1 -9 0
11 -1 9 0
-11 1 9 0
-12 9 0
11 -12 -1 0
-11 -12 1 0
11 12 1 -9 0
-11 12 -1 -9 0
-13 9 0
11 -13 1 0
-11 -13 -1 0
11 13 -1 -9 0
-11 13 1 -9 0
14 -10 11 0
14 -10 9 0
-14 10 11 0
-14 10 9 0
14 10 -11 -9 0
-14 -10 -11 -9 0
15 11 -9 0
15 -11 9 0
-15 11 9 0
-15 -11 -9 0
16 -14 11 0
16 -14 15 0
-16 14 11 0
-16 14 15 0
16 -17 -14 0
-16 -17 14 0
16 17 14 -11 -15 0
-16 17 -14 -11 -15 0
17 11 -15 0
-17 11 15 0
-18 11 0
17 -18 -15 0
-17 -18 15 0
17 18 -11 15 0
-17 18 -11 -15 0
-19 11 0
17 -19 15 0
-17 -19 -15 0
17 19 -11 -15 0
-17 19 -11 15 0
20 -16 3 0
20 -16 4 0
-20 16 3 0
-20 16 4 0
20 16 -3 -4 0
-20 -16 -3 -4 0
21 3 -4 0
21 -3 4 0
-21 3 4 0
-21 -3 -4 0
22 23 -20 0
22 -20 21 0
-22 23 20 0
-22 20 21 0
22 -20 -3 0
-22 20 -3 0
22 -23 20 3 -21 0
-22 -23 -20 3 -21 0
23 -3 21 0
-23 3 21 0
-24 21 0
23 -24 -3 0
-23 -24 3 0
23 24 3 -21 0
-23 24 -3 -21 0
-25 21 0
23 -25 3 0
-23 -25 -3 0
23 25 -3 -21 0
-23 25 3 -21 0
26 -22 23 0
26 -22 21 0
-26 22 23 0
-26 22 21 0
26 22 -23 -21 0
-26 -22 -23 -21 0
27 23 -21 0
27 -23 21 0
-27 23 21 0
-27 -23 -21 0
28 -26 23 0
28 -26 27 0
-28 26 23 0
-28 26 27 0
28 -29 -26 0
-28 -29 26 0
28 29 26 -23 -27 0
-28 29 -26 -23 -27 0
29 23 -27 0
-29 23 27 0
-30 23 0
29 -30 -27 0
-29 -30 27 0
29 30 -23 27 0
-29 30 -23 -27 0
-31 23 0
29 -31 27 0
-29 -31 -27 0
29 31 -23 -27 0
-29 31 -23 27 0
32 -28 11 0
32 -28 29 0
-32 28 11 0
-32 28 29 0
32 -28 23 -17 0
32 -28 -23 17 0
-32 28 23 -17 0
-32 28 -23 17 0
32 28 -11 23 17 -29 0
32 28 -11 -23 -17 -29 0
-32 -28 -11 23 17 -29 0
-32 -28 -11 -23 -17 -29 0
34 11 -23 0
34 -11 23 0
-34 11 23 0
-34 -11 -23 0
33 17 -29 0
33 -17 29 0
-33 17 29 0
-33 -17 -29 0
35 -32 34 0
35 -32 29 0
-35 32 34 0
-35 32 29 0
35 -36 -32 0
-35 -36 32 0
35 36 32 -34 -29 0
-35 36 -32 -34 -29 0
36 34 -29 0
-36 34 29 0
-37 34 0
36 -37 -29 0
-36 -37 29 0
36 37 -34 29 0
-36 37 -34 -29 0
-38 34 0
36 -38 29 0
-36 -38 -29 0
36 38 -34 -29 0
-36 38 -34 29 0
39 -35 11 0
39 -35 36 0
-39 35 11 0
-39 35 36 0
39 -35 34 -33 0
39 -35 -34 33 0
-39 35 34 -33 0
-39 35 -34 33 0
39 35 -11 34 33 -36 0
39 35 -11 -34 -33 -36 0
-39 -35 -11 34 33 -36 0
-39 -35 -11 -34 -33 -36 0
41 11 -34 0
41 -11 34 0
-41 11 34 0
-41 -11 -34 0
40 33 -36 0
40 -33 36 0
-40 33 36 0
-40 -33 -36 0
42 -39 5 0
42 -39 6 0
-42 39 5 0
-42 39 6 0
42 39 -5 -6 0
-42 -39 -5 -6 0
43 5 -6 0
43 -5 6 0
-43 5 6 0
-43 -5 -6 0
44 45 -42 0
44 -42 43 0
-44 45 42 0
-44 42 43 0
44 -42 -5 0
-44 42 -5 0
44 -45 42 5 -43 0
-44 -45 -42 5 -43 0
45 -5 43 0
-45 5 43 0
-46 43 0
45 -46 -5 0
-45 -46 5 0
45 46 5 -43 0
-45 46 -5 -43 0
-47 43 0
45 -47 5 0
-45 -47 -5 0
45 47 -5 -43 0
-45 47 5 -43 0
48 -44 45 0
48 -44 43 0
-48 44 45 0
-48 44 43 0
48 44 -45 -43 0
-48 -44 -45 -43 0
49 45 -43 0
49 -45 43 0
-49 45 43 0
-49 -45 -43 0
50 -48 45 0
50 -48 49 0
-50 48 45 0
-50 48 49 0
50 -51 -48 0
-50 -51 48 0
50 51 48 -45 -49 0
-50 51 -48 -45 -49 0
51 45 -49 0
-51 45 49 0
-52 45 0
51 -52 -49 0
-51 -52 49 0
51 52 -45 49 0
-51 52 -45 -49 0
-53 45 0
51 -53 49 0
-51 -53 -49 0
51 53 -45 -49 0
-51 53 -45 49 0
54 -50 11 0
54 -50 51 0
-54 50 11 0
-54 50 51 0
54 -50 45 -40 0
54 -50 -45 40 0
-54 50 45 -40 0
-54 50 -45 40 0
54 50 -11 45 40 -51 0
54 50 -11 -45 -40 -51 0
-54 -50 -11 45 40 -51 0
-54 -50 -11 -45 -40 -51 0
56 11 -45 0
56 -11 45 0
-56 11 45 0
-56 -11 -45 0
55 40 -51 0
55 -40 51 0
-55 40 51 0
-55 -40 -51 0
57 -54 56 0
57 -54 51 0
-57 54 56 0
-57 54 51 0
57 -58 -54 0
-57 -58 54 0
57 58 54 -56 -51 0
-57 58 -54 -56 -51 0
58 56 -51 0
-58 56 51 0
-59 56 0
58 -59 -51 0
-58 -59 51 0
58 59 -56 51 0
-58 59 -56 -51 0
-60 56 0
58 -60 51 0
-58 -60 -51 0
58 60 -56 -51 0
-58 60 -56 51 0
61 -57 11 0
61 -57 58 0
-61 57 11 0
-61 57 58 0
61 -57 56 -55 0
61 -57 -56 55 0
-61 57 56 -55 0
-61 57 -56 55 0
61 57 -11 56 55 -58 0
61 57 -11 -56 -55 -58 0
-61 -57 -11 56 55 -58 0
-61 -57 -11 -56 -55 -58 0
63 11 -56 0
63 -11 56 0
-63 11 56 0
-63 -11 -56 0
62 55 -58 0
62 -55 58 0
-62 55 58 0
-62 -55 -58 0
64 -61 11 0
64 -61 62 0
-64 61 11 0
-64 61 62 0
64 61 -11 -62 0
-64 -61 -11 -62 0
65 11 -62 0
65 -11 62 0
-65 11 62 0
-65 -11 -62 0
66 67 -64 0
66 -64 65 0
-66 67 64 0
-66 64 65 0
66 -64 -11 0
-66 64 -11 0
66 -67 64 11 -65 0
-66 -67 -64 11 -65 0
67 -11 65 0
-67 11 65 0
-68 65 0
67 -68 -11 0
-67 -68 11 0
67 68 11 -65 0
-67 68 -11 -65 0
-69 65 0
67 -69 11 0
-67 -69 -11 0
67 69 -11 -65 0
-67 69 11 -65 0
70 -66 67 0
70 -66 65 0
-70 66 67 0
-70 66 65 0
70 66 -67 -65 0
-70 -66 -67 -65 0
71 67 -65 0
71 -67 65 0
-71 67 65 0
-71 -67 -65 0
72 -70 67 0
72 -70 71 0
-72 70 67 0
-72 70 71 0
72 -73 -70 0
-72 -73 70 0
72 73 70 -67 -71 0
-72 73 -70 -67 -71 0
73 67 -71 0
-73 67 71 0
-74 67 0
73 -74 -71 0
-73 -74 71 0
73 74 -67 71 0
-73 74 -67 -71 0
-75 67 0
73 -75 71 0
-73 -75 -71 0
73 75 -67 -71 0
-73 75 -67 71 0
76 -72 41 0
76 -72 58 0
-76 72 41 0
-76 72 58 0
76 -72 63 -36 0
76 -72 -63 36 0
-76 72 63 -36 0
-76 72 -63 36 0
76 72 -41 63 36 -58 0
76 72 -41 -63 -36 -58 0
-76 -72 -41 63 36 -58 0
-76 -72 -41 -63 -36 -58 0
78 41 -63 0
78 -41 63 0
-78 41 63 0
-78 -41 -63 0
77 36 -58 0
77 -36 58 0
-77 36 58 0
-77 -36 -58 0
79 -76 78 0
79 -76 58 0
-79 76 78 0
-79 76 58 0
79 -80 -76 0
-79 -80 76 0
79 80 76 -78 -58 0
-79 80 -76 -78 -58 0
80 78 -58 0
-80 78 58 0
-81 78 0
80 -81 -58 0
-80 -81 58 0
80 81 -78 58 0
-80 81 -78 -58 0
-82 78 0
80 -82 58 0
-80 -82 -58 0
80 82 -78 -58 0
-80 82 -78 58 0
83 -79 41 0
83 -79 80 0
-83 79 41 0
-83 79 80 0
83 -79 78 -77 0
83 -79 -78 77 0
-83 79 78 -77 0
-83 79 -78 77 0
83 79 -41 78 77 -80 0
83 79 -41 -78 -77 -80 0
-83 -79 -41 78 77 -80 0
-83 -79 -41 -78 -77 -80 0
85 41 -78 0
85 -41 78 0
-85 41 78 0
-85 -41 -78 0
84 77 -80 0
84 -77 80 0
-84 77 80 0
-84 -77 -80 0
86 -83 41 0
86 -83 84 0
-86 83 41 0
-86 83 84 0
86 83 -41 -84 0
-86 -83 -41 -84 0
87 41 -84 0
87 -41 84 0
-87 41 84 0
-87 -41 -84 0
88 89 -86 0
88 -86 87 0
-88 89 86 0
-88 86 87 0
88 -86 -41 0
-88 86 -41 0
88 -89 86 41 -87 0
-88 -89 -86 41 -87 0
89 -41 87 0
-89 41 87 0
-90 87 0
89 -90 -41 0
-89 -90 41 0
89 90 41 -87 0
-89 90 -41 -87 0
-91 87 0
89 -91 41 0
-89 -91 -41 0
89 91 -41 -87 0
-89 91 41 -87 0
92 -88 89 0
92 -88 87 0
-92 88 89 0
-92 88 87 0
92 88 -89 -87 0
-92 -88 -89 -87 0
93 89 -87 0
93 -89 87 0
-93 89 87 0
-93 -89 -87 0
94 -92 89 0
94 -92 93 0
-94 92 89 0
-94 92 93 0
94 -95 -92 0
-94 -95 92 0
94 95 92 -89 -93 0
-94 95 -92 -89 -93 0
95 89 -93 0
-95 89 93 0
-96 89 0
95 -96 -93 0
-95 -96 93 0
95 96 -89 93 0
-95 96 -89 -93 0
-97 89 0
95 -97 93 0
-95 -97 -93 0
95 97 -89 -93 0
-95 97 -89 93 0
98 -94 67 0
98 -94 95 0
-98 94 67 0
-98 94 95 0
98 -94 89 -73 0
98 -94 -89 73 0
-98 94 89 -73 0
-98 94 -89 73 0
98 94 -67 89 73 -95 0
98 94 -67 -89 -73 -95 0
-98 -94 -67 89 73 -95 0
-98 -94 -67 -89 -73 -95 0
100 67 -89 0
100 -67 89 0
-100 67 89 0
-100 -67 -89 0
99 73 -95 0
99 -73 95 0
-99 73 95 0
-99 -73 -95 0
101 -98 100 0
101 -98 95 0
-101 98 100 0
-101 98 95 0
101 -102 -98 0
-101 -102 98 0
101 102 98 -100 -95 0
-101 102 -98 -100 -95 0
102 100 -95 0
-102 100 95 0
-103 100 0
102 -103 -95 0
-102 -103 95 0
102 103 -100 95 0
-102 103 -100 -95 0
-104 100 0
102 -104 95 0
-102 -104 -95 0
102 104 -100 -95 0
-102 104 -100 95 0
105 -101 67 0
105 -101 102 0
-105 101 67 0
-105 101 102 0
105 -101 100 -99 0
105 -101 -100 99 0
-105 101 100 -99 0
-105 101 -100 99 0
105 101 -67 100 99 -102 0
105 101 -67 -100 -99 -102 0
-105 -101 -67 100 99 -102 0
-105 -101 -67 -100 -99 -102 0
107 67 -100 0
107 -67 100 0
-107 67 100 0
-107 -67 -100 0
106 99 -102 0
106 -99 102 0
-106 99 102 0
-106 -99 -102 0
108 -105 85 0
108 -105 80 0
-108 105 85 0
-108 105 80 0
108 105 -85 -80 0
-108 -105 -85 -80 0
109 85 -80 0
109 -85 80 0
-109 85 80 0
-109 -85 -80 0
110 111 -108 0
110 -108 109 0
-110 111 108 0
-110 108 109 0
110 -108 -85 0
-110 108 -85 0
110 -111 108 85 -109 0
-110 -111 -108 85 -109 0
111 -85 109 0
-111 85 109 0
-112 109 0
111 -112 -85 0
-111 -112 85 0
111 112 85 -109 0
-111 112 -85 -109 0
-113 109 0
111 -113 85 0
-111 -113 -85 0
111 113 -85 -109 0
-111 113 85 -109 0
114 -110 111 0
114 -110 109 0
-114 110 111 0
-114 110 109 0
114 110 -111 -109 0
-114 -110 -111 -109 0
115 111 -109 0
115 -111 109 0
-115 111 109 0
-115 -111 -109 0
116 -114 111 0
116 -114 115 0
-116 114 111 0
-116 114 115 0
116 -117 -114 0
-116 -117 114 0
116 117 114 -111 -115 0
-116 117 -114 -111 -115 0
117 111 -115 0
-117 111 115 0
-118 111 0
117 -118 -115 0
-117 -118 115 0
117 118 -111 115 0
-117 118 -111 -115 0
-119 111 0
117 -119 115 0
-117 -119 -115 0
117 119 -111 -115 0
-117 119 -111 115 0
120 -116 67 0
120 -116 117 0
-120 116 67 0
-120 116 117 0
120 -116 111 -106 0
120 -116 -111 106 0
-120 116 111 -106 0
-120 116 -111 106 0
120 116 -67 111 106 -117 0
120 116 -67 -111 -106 -117 0
-120 -116 -67 111 106 -117 0
-120 -116 -67 -111 -106 -117 0
122 67 -111 0
122 -67 111 0
-122 67 111 0
-122 -67 -111 0
121 106 -117 0
121 -106 117 0
-121 106 117 0
-121 -106 -117 0
123 -120 122 0
123 -120 117 0
-123 120 122 0
-123 120 117 0
123 -124 -120 0
-123 -124 120 0
123 124 120 -122 -117 0
-123 124 -120 -122 -117 0
124 122 -117 0
-124 122 117 0
-125 122 0
124 -125 -117 0
-124 -125 117 0
124 125 -122 117 0
-124 125 -122 -117 0
-126 122 0
124 -126 117 0
-124 -126 -117 0
124 126 -122 -117 0
-124 126 -122 117 0
127 -123 67 0
127 -123 124 0
-127 123 67 0
-127 123 124 0
127 -123 122 -121 0
127 -123 -122 121 0
-127 123 122 -121 0
-127 123 -122 121 0
127 123 -67 122 121 -124 0
127 123 -67 -122 -121 -124 0
-127 -123 -67 122 121 -124 0
-127 -123 -67 -122 -121 -124 0
129 67 -122 0
129 -67 122 0
-129 67 122 0
-129 -67 -122 0
128 121 -124 0
128 -121 124 0
-128 121 124 0
-128 -121 -124 0
130 -127 67 0
130 -127 128 0
-130 127 67 0
-130 127 128 0
130 -131 -127 0
-130 -131 127 0
130 131 127 -67 -128 0
-130 131 -127 -67 -128 0
131 67 -128 0
-131 67 128 0
-132 67 0
131 -132 -128 0
-131 -132 128 0
131 132 -67 128 0
-131 132 -67 -128 0
-133 67 0
131 -133 128 0
-131 -133 -128 0
131 133 -67 -128 0
-131 133 -67 128 0
134 135 -130 0
134 -130 131 0
-134 135 130 0
-134 130 131 0
134 -130 -67 0
-134 130 -67 0
134 -135 130 67 -131 0
-134 -135 -130 67 -131 0
135 -67 131 0
-135 67 131 0
-136 131 0
135 -136 -67 0
-135 -136 67 0
135 136 67 -131 0
-135 136 -67 -131 0
-137 131 0
135 -137 67 0
-135 -137 -67 0
135 137 -67 -131 0
-135 137 67 -131 0
138 -134 135 0
138 -134 131 0
-138 134 135 0
-138 134 131 0
138 -139 -134 0
-138 -139 134 0
138 139 134 -135 -131 0
-138 139 -134 -135 -131 0
139 135 -131 0
-139 135 131 0
-140 135 0
139 -140 -131 0
-139 -140 131 0
139 140 -135 131 0
-139 140 -135 -131 0
-141 135 0
139 -141 131 0
-139 -141 -131 0
139 141 -135 -131 0
-139 141 -135 131 0
142 143 -138 0
142 -138 139 0
-142 143 138 0
-142 138 139 0
142 -138 -135 0
-142 138 -135 0
142 -143 138 135 -139 0
-142 -143 -138 135 -139 0
143 -135 139 0
-143 135 139 0
-144 139 0
143 -144 -135 0
-143 -144 135 0
143 144 135 -139 0
-143 144 -135 -139 0
-145 139 0
143 -145 135 0
-143 -145 -135 0
143 145 -135 -139 0
-143 145 135 -139 0
146 -142 143 0
146 -142 139 0
-146 142 143 0
-146 142 139 0
146 -147 -142 0
-146 -147 142 0
146 147 142 -143 -139 0
-146 147 -142 -143 -139 0
147 143 -139 0
-147 143 139 0
-148 143 0
147 -148 -139 0
-147 -148 139 0
147 148 -143 139 0
-147 148 -143 -139 0
-149 143 0
147 -149 139 0
-147 -149 -139 0
147 149 -143 -139 0
-147 149 -143 139 0
150 -146 107 0
150 -146 124 0
-150 146 107 0
-150 146 124 0
150 -146 129 -102 0
150 -146 -129 102 0
-150 146 129 -102 0
-150 146 -129 102 0
150 146 -107 129 102 -124 0
150 146 -107 -129 -102 -124 0
-150 -146 -107 129 102 -124 0
-150 -146 -107 -129 -102 -124 0
152 107 -129 0
152 -107 129 0
-152 107 129 0
-152 -107 -129 0
151 102 -124 0
151 -102 124 0
-151 102 124 0
-151 -102 -124 0
153 -150 152 0
153 -150 124 0
-153 150 152 0
-153 150 124 0
153 -154 -150 0
-153 -154 150 0
153 154 150 -152 -124 0
-153 154 -150 -152 -124 0
154 152 -124 0
-154 152 124 0
-155 152 0
154 -155 -124 0
-154 -155 124 0
154 155 -152 124 0
-154 155 -152 -124 0
-156 152 0
154 -156 124 0
-154 -156 -124 0
154 156 -152 -124 0
-154 156 -152 124 0
157 -153 107 0
157 -153 154 0
-157 153 107 0
-157 153 154 0
157 -153 152 -151 0
157 -153 -152 151 0
-157 153 152 -151 0
-157 153 -152 151 0
157 153 -107 152 151 -154 0
157 153 -107 -152 -151 -154 0
-157 -153 -107 152 151 -154 0
-157 -153 -107 -152 -151 -154 0
159 107 -152 0
159 -107 152 0
-159 107 152 0
-159 -107 -152 0
158 151 -154 0
158 -151 154 0
-158 151 154 0
-158 -151 -154 0
160 -157 107 0
160 -157 158 0
-160 157 107 0
-160 157 158 0
160 -161 -157 0
-160 -161 157 0
160 161 157 -107 -158 0
-160 161 -157 -107 -158 0
161 107 -158 0
-161 107 158 0
-162 107 0
161 -162 -158 0
-161 -162 158 0
161 162 -107 158 0
-161 162 -107 -158 0
-163 107 0
161 -163 158 0
-161 -163 -158 0
161 163 -107 -158 0
-161 163 -107 158 0
164 165 -160 0
164 -160 161 0
-164 165 160 0
-164 160 161 0
164 -160 -107 0
-164 160 -107 0
164 -165 160 107 -161 0
-164 -165 -160 107 -161 0
165 -107 161 0
-165 107 161 0
-166 161 0
165 -166 -107 0
-165 -166 107 0
165 166 107 -161 0
-165 166 -107 -161 0
-167 161 0
165 -167 107 0
-165 -167 -107 0
165 167 -107 -161 0
-165 167 107 -161 0
168 -164 165 0
168 -164 161 0
-168 164 165 0
-168 164 161 0
168 -169 -164 0
-168 -169 164 0
168 169 164 -165 -161 0
-168 169 -164 -165 -161 0
169 165 -161 0
-169 165 161 0
-170 165 0
169 -170 -161 0
-169 -170 161 0
169 170 -165 161 0
-169 170 -165 -161 0
-171 165 0
169 -171 161 0
-169 -171 -161 0
169 171 -165 -161 0
-169 171 -165 161 0
172 173 -168 0
172 -168 169 0
-172 173 168 0
-172 168 169 0
172 -168 -165 0
-172 168 -165 0
172 -173 168 165 -169 0
-172 -173 -168 165 -169 0
173 -165 169 0
-173 165 169 0
-174 169 0
173 -174 -165 0
-173 -174 165 0
173 174 165 -169 0
-173 174 -165 -169 0
-175 169 0
173 -175 165 0
-173 -175 -165 0
173 175 -165 -169 0
-173 175 165 -169 0
176 -172 173 0
176 -172 169 0
-176 172 173 0
-176 172 169 0
176 -177 -172 0
-176 -177 172 0
176 177 172 -173 -169 0
-176 177 -172 -173 -169 0
177 173 -169 0
-177 173 169 0
-178 173 0
177 -178 -169 0
-177 -178 169 0
177 178 -173 169 0
-177 178 -173 -169 0
-179 173 0
177 -179 169 0
-177 -179 -169 0
177 179 -173 -169 0
-177 179 -173 169 0
180 -176 159 0
180 -176 154 0
-180 176 159 0
-180 176 154 0
180 -181 -176 0
-180 -181 176 0
180 181 176 -159 -154 0
-180 181 -176 -159 -154 0
181 159 -154 0
-181 159 154 0
-182 159 0
181 -182 -154 0
-181 -182 154 0
181 182 -159 154 0
-181 182 -159 -154 0
-183 159 0
181 -183 154 0
-181 -183 -154 0
181 183 -159 -154 0
-181 183 -159 154 0
184 185 -180 0
184 -180 181 0
-184 185 180 0
-184 180 181 0
184 -180 -159 0
-184 180 -159 0
184 -185 180 159 -181 0
-184 -185 -180 159 -181 0
185 -159 181 0
-185 159 181 0
-186 181 0
185 -186 -159 0
-185 -186 159 0
185 186 159 -181 0
-185 186 -159 -181 0
-187 181 0
185 -187 159 0
-185 -187 -159 0
185 187 -159 -181 0
-185 187 159 -181 0
188 -184 185 0
188 -184 181 0
-188 184 185 0
-188 184 181 0
188 -189 -184 0
-188 -189 184 0
188 189 184 -185 -181 0
-188 189 -184 -185 -181 0
189 185 -181 0
-189 185 181 0
-190 185 0
189 -190 -181 0
-189 -190 181 0
189 190 -185 181 0
-189 190 -185 -181 0
-191 185 0
189 -191 181 0
-189 -191 -181 0
189 191 -185 -181 0
-189 191 -185 181 0
192 193 -188 0
192 -188 189 0
-192 193 188 0
-192 188 189 0
192 -188 -185 0
-192 188 -185 0
192 -193 188 185 -189 0
-192 -193 -188 185 -189 0
193 -185 189 0
-193 185 189 0
-194 189 0
193 -194 -185 0
-193 -194 185 0
193 194 185 -189 0
-193 194 -185 -189 0
-195 189 0
193 -195 185 0
-193 -195 -185 0
193 195 -185 -189 0
-193 195 185 -189 0
196 -192 193 0
196 -192 189 0
-196 192 193 0
-196 192 189 0
196 -197 -192 0
-196 -197 192 0
196 197 192 -193 -189 0
-196 197 -192 -193 -189 0
197 193 -189 0
-197 193 189 0
-198 193 0
197 -198 -189 0
-197 -198 189 0
197 198 -193 189 0
-197 198 -193 -189 0
-199 193 0
197 -199 189 0
-197 -199 -189 0
197 199 -193 -189 0
-197 199 -193 189 0
200 -196 173 0
200 -196 197 0
-200 196 173 0
-200 196 197 0
200 -196 193 -177 0
200 -196 -193 177 0
-200 196 193 -177 0
-200 196 -193 177 0
200 196 -173 193 177 -197 0
200 196 -173 -193 -177 -197 0
-200 -196 -173 193 177 -197 0
-200 -196 -173 -193 -177 -197 0
202 173 -193 0
202 -173 193 0
-202 173 193 0
-202 -173 -193 0
201 177 -197 0
201 -177 197 0
-201 177 197 0
-201 -177 -197 0
203 -200 143 0
203 -200 201 0
-203 200 143 0
-203 200 201 0
203 -200 173 -147 0
203 -200 -173 147 0
-203 200 173 -147 0
-203 200 -173 147 0
203 200 -143 173 147 -201 0
203 200 -143 -173 -147 -201 0
-203 -200 -143 173 147 -201 0
-203 -200 -143 -173 -147 -201 0
205 143 -173 0
205 -143 173 0
-205 143 173 0
-205 -143 -173 0
204 147 -201 0
204 -147 201 0
-204 147 201 0
-204 -147 -201 0
206 -203 143 0
206 -203 204 0
-206 203 143 0
-206 203 204 0
206 -207 -203 0
-206 -207 203 0
206 207 203 -143 -204 0
-206 207 -203 -143 -204 0
207 143 -204 0
-207 143 204 0
-208 143 0
207 -208 -204 0
-207 -208 204 0
207 208 -143 204 0
-207 208 -143 -204 0
-209 143 0
207 -209 204 0
-207 -209 -204 0
207 209 -143 -204 0
-207 209 -143 204 0
210 211 -206 0
210 -206 207 0
-210 211 206 0
-210 206 207 0
210 -206 -143 0
-210 206 -143 0
210 -211 206 143 -207 0
-210 -211 -206 143 -207 0
211 -143 207 0
-211 143 207 0
-212 207 0
211 -212 -143 0
-211 -212 143 0
211 212 143 -207 0
-211 212 -143 -207 0
-213 207 0
211 -213 143 0
-211 -213 -143 0
211 213 -143 -207 0
-211 213 143 -207 0
214 -210 211 0
214 -210 207 0
-214 210 211 0
-214 210 207 0
214 -215 -210 0
-214 -215 210 0
214 215 210 -211 -207 0
-214 215 -210 -211 -207 0
215 211 -207 0
-215 211 207 0
-216 211 0
215 -216 -207 0
-215 -216 207 0
215 216 -211 207 0
-215 216 -211 -207 0
-217 211 0
215 -217 207 0
-215 -217 -207 0
215 217 -211 -207 0
-215 217 -211 207 0
218 219 -214 0
218 -214 215 0
-218 219 214 0
-218 214 215 0
218 -214 -211 0
-218 214 -211 0
218 -219 214 211 -215 0
-218 -219 -214 211 -215 0
219 -211 215 0
-219 211 215 0
-220 215 0
219 -220 -211 0
-219 -220 211 0
219 220 211 -215 0
-219 220 -211 -215 0
-221 215 0
219 -221 211 0
-219 -221 -211 0
219 221 -211 -215 0
-219 221 211 -215 0
222 -218 219 0
222 -218 215 0
-222 218 219 0
-222 218 215 0
222 -223 -218 0
-222 -223 218 0
222 223 218 -219 -215 0
-222 223 -218 -219 -215 0
223 219 -215 0
-223 219 215 0
-224 219 0
223 -224 -215 0
-223 -224 215 0
223 224 -219 215 0
-223 224 -219 -215 0
-225 219 0
223 -225 215 0
-223 -225 -215 0
223 225 -219 -215 0
-223 225 -219 215 0
226 -222 205 0
226 -222 201 0
-226 222 205 0
-226 222 201 0
226 -227 -222 0
-226 -227 222 0
226 227 222 -205 -201 0
-226 227 -222 -205 -201 0
227 205 -201 0
-227 205 201 0
-228 205 0
227 -228 -201 0
-227 -228 201 0
227 228 -205 201 0
-227 228 -205 -201 0
-229 205 0
227 -229 201 0
-227 -229 -201 0
227 229 -205 -201 0
-227 229 -205 201 0
230 231 -226 0
230 -226 227 0
-230 231 226 0
-230 226 227 0
230 -226 -205 0
-230 226 -205 0
230 -231 226 205 -227 0
-230 -231 -226 205 -227 0
231 -205 227 0
-231 205 227 0
-232 227 0
231 -232 -205 0
-231 -232 205 0
231 232 205 -227 0
-231 232 -205 -227 0
-233 227 0
231 -233 205 0
-231 -233 -205 0
231 233 -205 -227 0
-231 233 205 -227 0
234 -230 231 0
234 -230 227 0
-234 230 231 0
-234 230 227 0
234 -235 -230 0
-234 -235 230 0
234 235 230 -231 -227 0
-234 235 -230 -231 -227 0
235 231 -227 0
-235 231 227 0
-236 231 0
235 -236 -227 0
-235 -236 227 0
235 236 -231 227 0
-235 236 -231 -227 0
-237 231 0
235 -237 227 0
-235 -237 -227 0
235 237 -231 -227 0
-235 237 -231 227 0
238 239 -234 0
238 -234 235 0
-238 239 234 0
-238 234 235 0
238 -234 -231 0
-238 234 -231 0
238 -239 234 231 -235 0
-238 -239 -234 231 -235 0
239 -231 235 0
-239 231 235 0
-240 235 0
239 -240 -231 0
-239 -240 231 0
239 240 231 -235 0
-239 240 -231 -235 0
-241 235 0
239 -241 231 0
-239 -241 -231 0
239 241 -231 -235 0
-239 241 231 -235 0
242 -238 239 0
242 -238 235 0
-242 238 239 0
-242 238 235 0
242 -243 -238 0
-242 -243 238 0
242 243 238 -239 -235 0
-242 243 -238 -239 -235 0
243 239 -235 0
-243 239 235 0
-244 239 0
243 -244 -235 0
-243 -244 235 0
243 244 -239 235 0
-243 244 -239 -235 0
-245 239 0
243 -245 235 0
-243 -245 -235 0
243 245 -239 -235 0
-243 245 -239 235 0
246 -242 202 0
246 -242 197 0
-246 242 202 0
-246 242 197 0
246 -247 -242 0
-246 -247 242 0
246 247 242 -202 -197 0
-246 247 -242 -202 -197 0
247 202 -197 0
-247 202 197 0
-248 202 0
247 -248 -197 0
-247 -248 197 0
247 248 -202 197 0
-247 248 -202 -197 0
-249 202 0
247 -249 197 0
-247 -249 -197 0
247 249 -202 -197 0
-247 249 -202 197 0
250 251 -246 0
250 -246 247 0
-250 251 246 0
-250 246 247 0
250 -246 -202 0
-250 246 -202 0
250 -251 246 202 -247 0
-250 -251 -246 202 -247 0
251 -202 247 0
-251 202 247 0
-252 247 0
251 -252 -202 0
-251 -252 202 0
251 252 202 -247 0
-251 252 -202 -247 0
-253 247 0
251 -253 202 0
-251 -253 -202 0
251 253 -202 -247 0
-251 253 202 -247 0
254 -250 251 0
254 -250 247 0
-254 250 251 0
-254 250 247 0
254 -255 -250 0
-254 -255 250 0
254 255 250 -251 -247 0
-254 255 -250 -251 -247 0
255 251 -247 0
-255 251 247 0
-256 251 0
255 -256 -247 0
-255 -256 247 0
255 256 -251 247 0
-255 256 -251 -247 0
-257 251 0
255 -257 247 0
-255 -257 -247 0
255 257 -251 -247 0
-255 257 -251 247 0
258 259 -254 0
258 -254 255 0
-258 259 254 0
-258 254 255 0
258 -254 -251 0
-258 254 -251 0
258 -259 254 251 -255 0
-258 -259 -254 251 -255 0
259 -251 255 0
-259 251 255 0
-260 255 0
259 -260 -251 0
-259 -260 251 0
259 260 251 -255 0
-259 260 -251 -255 0
-261 255 0
259 -261 251 0
-259 -261 -251 0
259 261 -251 -255 0
-259 261 251 -255 0
262 -258 259 0
262 -258 255 0
-262 258 259 0
-262 258 255 0
262 -263 -258 0
-262 -263 258 0
262 263 258 -259 -255 0
-262 263 -258 -259 -255 0
263 259 -255 0
-263 259 255 0
-264 259 0
263 -264 -255 0
-263 -264 255 0
263 264 -259 255 0
-263 264 -259 -255 0
-265 259 0
263 -265 255 0
-263 -265 -255 0
263 265 -259 -255 0
-263 265 -259 255 0
